(set-logic QF_LRA)
(declare-fun T1 () Real )
(declare-fun T2 () Real )
(declare-fun T3 () Real )
(declare-fun T4 () Real )
(declare-fun T5 () Real )
(declare-fun T6 () Real )
(declare-fun T7 () Real )
(declare-fun T8 () Real )
(declare-fun T9 () Real )
(declare-fun T10 () Real )
(declare-fun Z () Real )
(declare-fun k () Real )
(assert (let
(( $goal (>= Z k) ))
(let
((
$phi ( and 
(or ( <= ( + T1 33 ) T2 ) ( <= ( + T2 100 ) T1 ) )
(or ( <= ( + T1 102 )  ( + T2 100 ) ) ( <= ( + T2 134 )( + T1 33 ) ) )
(or ( <= ( + T1 107 )  ( + T2 134 ) ) ( <= ( + T2 170 )( + T1 102 ) ) )
(or ( <= ( + T1 119 )  ( + T2 170 ) ) ( <= ( + T2 200 )( + T1 107 ) ) )
(or ( <= ( + T1 135 )  ( + T2 200 ) ) ( <= ( + T2 282 )( + T1 119 ) ) )
(or ( <= ( + T1 175 )  ( + T2 282 ) ) ( <= ( + T2 327 )( + T1 135 ) ) )
(or ( <= ( + T1 225 )  ( + T2 327 ) ) ( <= ( + T2 388 )( + T1 175 ) ) )
(or ( <= ( + T1 283 )  ( + T2 388 ) ) ( <= ( + T2 481 )( + T1 225 ) ) )
(or ( <= ( + T1 33 ) T3 ) ( <= ( + T3 75 ) T1 ) )
(or ( <= ( + T1 102 )  ( + T3 75 ) ) ( <= ( + T3 114 )( + T1 33 ) ) )
(or ( <= ( + T1 107 )  ( + T3 114 ) ) ( <= ( + T3 190 )( + T1 102 ) ) )
(or ( <= ( + T1 119 )  ( + T3 190 ) ) ( <= ( + T3 251 )( + T1 107 ) ) )
(or ( <= ( + T1 135 )  ( + T3 251 ) ) ( <= ( + T3 285 )( + T1 119 ) ) )
(or ( <= ( + T1 175 )  ( + T3 285 ) ) ( <= ( + T3 321 )( + T1 135 ) ) )
(or ( <= ( + T1 225 )  ( + T3 321 ) ) ( <= ( + T3 351 )( + T1 175 ) ) )
(or ( <= ( + T1 283 )  ( + T3 351 ) ) ( <= ( + T3 386 )( + T1 225 ) ) )
(or ( <= ( + T1 33 ) T4 ) ( <= ( + T4 79 ) T1 ) )
(or ( <= ( + T1 102 )  ( + T4 79 ) ) ( <= ( + T4 109 )( + T1 33 ) ) )
(or ( <= ( + T1 107 )  ( + T4 109 ) ) ( <= ( + T4 197 )( + T1 102 ) ) )
(or ( <= ( + T1 119 )  ( + T4 197 ) ) ( <= ( + T4 289 )( + T1 107 ) ) )
(or ( <= ( + T1 135 )  ( + T4 289 ) ) ( <= ( + T4 332 )( + T1 119 ) ) )
(or ( <= ( + T1 175 )  ( + T4 332 ) ) ( <= ( + T4 370 )( + T1 135 ) ) )
(or ( <= ( + T1 225 )  ( + T4 370 ) ) ( <= ( + T4 437 )( + T1 175 ) ) )
(or ( <= ( + T1 283 )  ( + T4 437 ) ) ( <= ( + T4 465 )( + T1 225 ) ) )
(or ( <= ( + T1 33 ) T5 ) ( <= ( + T5 58 ) T1 ) )
(or ( <= ( + T1 102 )  ( + T5 58 ) ) ( <= ( + T5 82 )( + T1 33 ) ) )
(or ( <= ( + T1 107 )  ( + T5 82 ) ) ( <= ( + T5 121 )( + T1 102 ) ) )
(or ( <= ( + T1 119 )  ( + T5 121 ) ) ( <= ( + T5 195 )( + T1 107 ) ) )
(or ( <= ( + T1 135 )  ( + T5 195 ) ) ( <= ( + T5 210 )( + T1 119 ) ) )
(or ( <= ( + T1 175 )  ( + T5 210 ) ) ( <= ( + T5 250 )( + T1 135 ) ) )
(or ( <= ( + T1 225 )  ( + T5 250 ) ) ( <= ( + T5 281 )( + T1 175 ) ) )
(or ( <= ( + T1 283 )  ( + T5 281 ) ) ( <= ( + T5 348 )( + T1 225 ) ) )
(or ( <= ( + T1 33 ) T6 ) ( <= ( + T6 73 ) T1 ) )
(or ( <= ( + T1 102 )  ( + T6 73 ) ) ( <= ( + T6 91 )( + T1 33 ) ) )
(or ( <= ( + T1 107 )  ( + T6 91 ) ) ( <= ( + T6 187 )( + T1 102 ) ) )
(or ( <= ( + T1 119 )  ( + T6 187 ) ) ( <= ( + T6 241 )( + T1 107 ) ) )
(or ( <= ( + T1 135 )  ( + T6 241 ) ) ( <= ( + T6 303 )( + T1 119 ) ) )
(or ( <= ( + T1 175 )  ( + T6 303 ) ) ( <= ( + T6 311 )( + T1 135 ) ) )
(or ( <= ( + T1 225 )  ( + T6 311 ) ) ( <= ( + T6 410 )( + T1 175 ) ) )
(or ( <= ( + T1 283 )  ( + T6 410 ) ) ( <= ( + T6 498 )( + T1 225 ) ) )
(or ( <= ( + T1 33 ) T7 ) ( <= ( + T7 98 ) T1 ) )
(or ( <= ( + T1 102 )  ( + T7 98 ) ) ( <= ( + T7 172 )( + T1 33 ) ) )
(or ( <= ( + T1 107 )  ( + T7 172 ) ) ( <= ( + T7 173 )( + T1 102 ) ) )
(or ( <= ( + T1 119 )  ( + T7 173 ) ) ( <= ( + T7 256 )( + T1 107 ) ) )
(or ( <= ( + T1 135 )  ( + T7 256 ) ) ( <= ( + T7 318 )( + T1 119 ) ) )
(or ( <= ( + T1 175 )  ( + T7 318 ) ) ( <= ( + T7 348 )( + T1 135 ) ) )
(or ( <= ( + T1 225 )  ( + T7 348 ) ) ( <= ( + T7 365 )( + T1 175 ) ) )
(or ( <= ( + T1 283 )  ( + T7 365 ) ) ( <= ( + T7 457 )( + T1 225 ) ) )
(or ( <= ( + T1 33 ) T8 ) ( <= ( + T8 60 ) T1 ) )
(or ( <= ( + T1 102 )  ( + T8 60 ) ) ( <= ( + T8 65 )( + T1 33 ) ) )
(or ( <= ( + T1 107 )  ( + T8 65 ) ) ( <= ( + T8 149 )( + T1 102 ) ) )
(or ( <= ( + T1 119 )  ( + T8 149 ) ) ( <= ( + T8 203 )( + T1 107 ) ) )
(or ( <= ( + T1 135 )  ( + T8 203 ) ) ( <= ( + T8 297 )( + T1 119 ) ) )
(or ( <= ( + T1 175 )  ( + T8 297 ) ) ( <= ( + T8 299 )( + T1 135 ) ) )
(or ( <= ( + T1 225 )  ( + T8 299 ) ) ( <= ( + T8 380 )( + T1 175 ) ) )
(or ( <= ( + T1 283 )  ( + T8 380 ) ) ( <= ( + T8 431 )( + T1 225 ) ) )
(or ( <= ( + T1 33 ) T9 ) ( <= ( + T9 77 ) T1 ) )
(or ( <= ( + T1 102 )  ( + T9 77 ) ) ( <= ( + T9 148 )( + T1 33 ) ) )
(or ( <= ( + T1 107 )  ( + T9 148 ) ) ( <= ( + T9 172 )( + T1 102 ) ) )
(or ( <= ( + T1 119 )  ( + T9 172 ) ) ( <= ( + T9 264 )( + T1 107 ) ) )
(or ( <= ( + T1 135 )  ( + T9 264 ) ) ( <= ( + T9 274 )( + T1 119 ) ) )
(or ( <= ( + T1 175 )  ( + T9 274 ) ) ( <= ( + T9 281 )( + T1 135 ) ) )
(or ( <= ( + T1 225 )  ( + T9 281 ) ) ( <= ( + T9 339 )( + T1 175 ) ) )
(or ( <= ( + T1 283 )  ( + T9 339 ) ) ( <= ( + T9 374 )( + T1 225 ) ) )
(or ( <= ( + T1 33 ) T10 ) ( <= ( + T10 76 ) T1 ) )
(or ( <= ( + T1 102 )  ( + T10 76 ) ) ( <= ( + T10 81 )( + T1 33 ) ) )
(or ( <= ( + T1 107 )  ( + T10 81 ) ) ( <= ( + T10 169 )( + T1 102 ) ) )
(or ( <= ( + T1 119 )  ( + T10 169 ) ) ( <= ( + T10 259 )( + T1 107 ) ) )
(or ( <= ( + T1 135 )  ( + T10 259 ) ) ( <= ( + T10 324 )( + T1 119 ) ) )
(or ( <= ( + T1 175 )  ( + T10 324 ) ) ( <= ( + T10 362 )( + T1 135 ) ) )
(or ( <= ( + T1 225 )  ( + T10 362 ) ) ( <= ( + T10 391 )( + T1 175 ) ) )
(or ( <= ( + T1 283 )  ( + T10 391 ) ) ( <= ( + T10 405 )( + T1 225 ) ) )
(or ( <= ( + T2 100 ) T3 ) ( <= ( + T3 75 ) T2 ) )
(or ( <= ( + T2 134 )  ( + T3 75 ) ) ( <= ( + T3 114 )( + T2 100 ) ) )
(or ( <= ( + T2 170 )  ( + T3 114 ) ) ( <= ( + T3 190 )( + T2 134 ) ) )
(or ( <= ( + T2 200 )  ( + T3 190 ) ) ( <= ( + T3 251 )( + T2 170 ) ) )
(or ( <= ( + T2 282 )  ( + T3 251 ) ) ( <= ( + T3 285 )( + T2 200 ) ) )
(or ( <= ( + T2 327 )  ( + T3 285 ) ) ( <= ( + T3 321 )( + T2 282 ) ) )
(or ( <= ( + T2 388 )  ( + T3 321 ) ) ( <= ( + T3 351 )( + T2 327 ) ) )
(or ( <= ( + T2 481 )  ( + T3 351 ) ) ( <= ( + T3 386 )( + T2 388 ) ) )
(or ( <= ( + T2 100 ) T4 ) ( <= ( + T4 79 ) T2 ) )
(or ( <= ( + T2 134 )  ( + T4 79 ) ) ( <= ( + T4 109 )( + T2 100 ) ) )
(or ( <= ( + T2 170 )  ( + T4 109 ) ) ( <= ( + T4 197 )( + T2 134 ) ) )
(or ( <= ( + T2 200 )  ( + T4 197 ) ) ( <= ( + T4 289 )( + T2 170 ) ) )
(or ( <= ( + T2 282 )  ( + T4 289 ) ) ( <= ( + T4 332 )( + T2 200 ) ) )
(or ( <= ( + T2 327 )  ( + T4 332 ) ) ( <= ( + T4 370 )( + T2 282 ) ) )
(or ( <= ( + T2 388 )  ( + T4 370 ) ) ( <= ( + T4 437 )( + T2 327 ) ) )
(or ( <= ( + T2 481 )  ( + T4 437 ) ) ( <= ( + T4 465 )( + T2 388 ) ) )
(or ( <= ( + T2 100 ) T5 ) ( <= ( + T5 58 ) T2 ) )
(or ( <= ( + T2 134 )  ( + T5 58 ) ) ( <= ( + T5 82 )( + T2 100 ) ) )
(or ( <= ( + T2 170 )  ( + T5 82 ) ) ( <= ( + T5 121 )( + T2 134 ) ) )
(or ( <= ( + T2 200 )  ( + T5 121 ) ) ( <= ( + T5 195 )( + T2 170 ) ) )
(or ( <= ( + T2 282 )  ( + T5 195 ) ) ( <= ( + T5 210 )( + T2 200 ) ) )
(or ( <= ( + T2 327 )  ( + T5 210 ) ) ( <= ( + T5 250 )( + T2 282 ) ) )
(or ( <= ( + T2 388 )  ( + T5 250 ) ) ( <= ( + T5 281 )( + T2 327 ) ) )
(or ( <= ( + T2 481 )  ( + T5 281 ) ) ( <= ( + T5 348 )( + T2 388 ) ) )
(or ( <= ( + T2 100 ) T6 ) ( <= ( + T6 73 ) T2 ) )
(or ( <= ( + T2 134 )  ( + T6 73 ) ) ( <= ( + T6 91 )( + T2 100 ) ) )
(or ( <= ( + T2 170 )  ( + T6 91 ) ) ( <= ( + T6 187 )( + T2 134 ) ) )
(or ( <= ( + T2 200 )  ( + T6 187 ) ) ( <= ( + T6 241 )( + T2 170 ) ) )
(or ( <= ( + T2 282 )  ( + T6 241 ) ) ( <= ( + T6 303 )( + T2 200 ) ) )
(or ( <= ( + T2 327 )  ( + T6 303 ) ) ( <= ( + T6 311 )( + T2 282 ) ) )
(or ( <= ( + T2 388 )  ( + T6 311 ) ) ( <= ( + T6 410 )( + T2 327 ) ) )
(or ( <= ( + T2 481 )  ( + T6 410 ) ) ( <= ( + T6 498 )( + T2 388 ) ) )
(or ( <= ( + T2 100 ) T7 ) ( <= ( + T7 98 ) T2 ) )
(or ( <= ( + T2 134 )  ( + T7 98 ) ) ( <= ( + T7 172 )( + T2 100 ) ) )
(or ( <= ( + T2 170 )  ( + T7 172 ) ) ( <= ( + T7 173 )( + T2 134 ) ) )
(or ( <= ( + T2 200 )  ( + T7 173 ) ) ( <= ( + T7 256 )( + T2 170 ) ) )
(or ( <= ( + T2 282 )  ( + T7 256 ) ) ( <= ( + T7 318 )( + T2 200 ) ) )
(or ( <= ( + T2 327 )  ( + T7 318 ) ) ( <= ( + T7 348 )( + T2 282 ) ) )
(or ( <= ( + T2 388 )  ( + T7 348 ) ) ( <= ( + T7 365 )( + T2 327 ) ) )
(or ( <= ( + T2 481 )  ( + T7 365 ) ) ( <= ( + T7 457 )( + T2 388 ) ) )
(or ( <= ( + T2 100 ) T8 ) ( <= ( + T8 60 ) T2 ) )
(or ( <= ( + T2 134 )  ( + T8 60 ) ) ( <= ( + T8 65 )( + T2 100 ) ) )
(or ( <= ( + T2 170 )  ( + T8 65 ) ) ( <= ( + T8 149 )( + T2 134 ) ) )
(or ( <= ( + T2 200 )  ( + T8 149 ) ) ( <= ( + T8 203 )( + T2 170 ) ) )
(or ( <= ( + T2 282 )  ( + T8 203 ) ) ( <= ( + T8 297 )( + T2 200 ) ) )
(or ( <= ( + T2 327 )  ( + T8 297 ) ) ( <= ( + T8 299 )( + T2 282 ) ) )
(or ( <= ( + T2 388 )  ( + T8 299 ) ) ( <= ( + T8 380 )( + T2 327 ) ) )
(or ( <= ( + T2 481 )  ( + T8 380 ) ) ( <= ( + T8 431 )( + T2 388 ) ) )
(or ( <= ( + T2 100 ) T9 ) ( <= ( + T9 77 ) T2 ) )
(or ( <= ( + T2 134 )  ( + T9 77 ) ) ( <= ( + T9 148 )( + T2 100 ) ) )
(or ( <= ( + T2 170 )  ( + T9 148 ) ) ( <= ( + T9 172 )( + T2 134 ) ) )
(or ( <= ( + T2 200 )  ( + T9 172 ) ) ( <= ( + T9 264 )( + T2 170 ) ) )
(or ( <= ( + T2 282 )  ( + T9 264 ) ) ( <= ( + T9 274 )( + T2 200 ) ) )
(or ( <= ( + T2 327 )  ( + T9 274 ) ) ( <= ( + T9 281 )( + T2 282 ) ) )
(or ( <= ( + T2 388 )  ( + T9 281 ) ) ( <= ( + T9 339 )( + T2 327 ) ) )
(or ( <= ( + T2 481 )  ( + T9 339 ) ) ( <= ( + T9 374 )( + T2 388 ) ) )
(or ( <= ( + T2 100 ) T10 ) ( <= ( + T10 76 ) T2 ) )
(or ( <= ( + T2 134 )  ( + T10 76 ) ) ( <= ( + T10 81 )( + T2 100 ) ) )
(or ( <= ( + T2 170 )  ( + T10 81 ) ) ( <= ( + T10 169 )( + T2 134 ) ) )
(or ( <= ( + T2 200 )  ( + T10 169 ) ) ( <= ( + T10 259 )( + T2 170 ) ) )
(or ( <= ( + T2 282 )  ( + T10 259 ) ) ( <= ( + T10 324 )( + T2 200 ) ) )
(or ( <= ( + T2 327 )  ( + T10 324 ) ) ( <= ( + T10 362 )( + T2 282 ) ) )
(or ( <= ( + T2 388 )  ( + T10 362 ) ) ( <= ( + T10 391 )( + T2 327 ) ) )
(or ( <= ( + T2 481 )  ( + T10 391 ) ) ( <= ( + T10 405 )( + T2 388 ) ) )
(or ( <= ( + T3 75 ) T4 ) ( <= ( + T4 79 ) T3 ) )
(or ( <= ( + T3 114 )  ( + T4 79 ) ) ( <= ( + T4 109 )( + T3 75 ) ) )
(or ( <= ( + T3 190 )  ( + T4 109 ) ) ( <= ( + T4 197 )( + T3 114 ) ) )
(or ( <= ( + T3 251 )  ( + T4 197 ) ) ( <= ( + T4 289 )( + T3 190 ) ) )
(or ( <= ( + T3 285 )  ( + T4 289 ) ) ( <= ( + T4 332 )( + T3 251 ) ) )
(or ( <= ( + T3 321 )  ( + T4 332 ) ) ( <= ( + T4 370 )( + T3 285 ) ) )
(or ( <= ( + T3 351 )  ( + T4 370 ) ) ( <= ( + T4 437 )( + T3 321 ) ) )
(or ( <= ( + T3 386 )  ( + T4 437 ) ) ( <= ( + T4 465 )( + T3 351 ) ) )
(or ( <= ( + T3 75 ) T5 ) ( <= ( + T5 58 ) T3 ) )
(or ( <= ( + T3 114 )  ( + T5 58 ) ) ( <= ( + T5 82 )( + T3 75 ) ) )
(or ( <= ( + T3 190 )  ( + T5 82 ) ) ( <= ( + T5 121 )( + T3 114 ) ) )
(or ( <= ( + T3 251 )  ( + T5 121 ) ) ( <= ( + T5 195 )( + T3 190 ) ) )
(or ( <= ( + T3 285 )  ( + T5 195 ) ) ( <= ( + T5 210 )( + T3 251 ) ) )
(or ( <= ( + T3 321 )  ( + T5 210 ) ) ( <= ( + T5 250 )( + T3 285 ) ) )
(or ( <= ( + T3 351 )  ( + T5 250 ) ) ( <= ( + T5 281 )( + T3 321 ) ) )
(or ( <= ( + T3 386 )  ( + T5 281 ) ) ( <= ( + T5 348 )( + T3 351 ) ) )
(or ( <= ( + T3 75 ) T6 ) ( <= ( + T6 73 ) T3 ) )
(or ( <= ( + T3 114 )  ( + T6 73 ) ) ( <= ( + T6 91 )( + T3 75 ) ) )
(or ( <= ( + T3 190 )  ( + T6 91 ) ) ( <= ( + T6 187 )( + T3 114 ) ) )
(or ( <= ( + T3 251 )  ( + T6 187 ) ) ( <= ( + T6 241 )( + T3 190 ) ) )
(or ( <= ( + T3 285 )  ( + T6 241 ) ) ( <= ( + T6 303 )( + T3 251 ) ) )
(or ( <= ( + T3 321 )  ( + T6 303 ) ) ( <= ( + T6 311 )( + T3 285 ) ) )
(or ( <= ( + T3 351 )  ( + T6 311 ) ) ( <= ( + T6 410 )( + T3 321 ) ) )
(or ( <= ( + T3 386 )  ( + T6 410 ) ) ( <= ( + T6 498 )( + T3 351 ) ) )
(or ( <= ( + T3 75 ) T7 ) ( <= ( + T7 98 ) T3 ) )
(or ( <= ( + T3 114 )  ( + T7 98 ) ) ( <= ( + T7 172 )( + T3 75 ) ) )
(or ( <= ( + T3 190 )  ( + T7 172 ) ) ( <= ( + T7 173 )( + T3 114 ) ) )
(or ( <= ( + T3 251 )  ( + T7 173 ) ) ( <= ( + T7 256 )( + T3 190 ) ) )
(or ( <= ( + T3 285 )  ( + T7 256 ) ) ( <= ( + T7 318 )( + T3 251 ) ) )
(or ( <= ( + T3 321 )  ( + T7 318 ) ) ( <= ( + T7 348 )( + T3 285 ) ) )
(or ( <= ( + T3 351 )  ( + T7 348 ) ) ( <= ( + T7 365 )( + T3 321 ) ) )
(or ( <= ( + T3 386 )  ( + T7 365 ) ) ( <= ( + T7 457 )( + T3 351 ) ) )
(or ( <= ( + T3 75 ) T8 ) ( <= ( + T8 60 ) T3 ) )
(or ( <= ( + T3 114 )  ( + T8 60 ) ) ( <= ( + T8 65 )( + T3 75 ) ) )
(or ( <= ( + T3 190 )  ( + T8 65 ) ) ( <= ( + T8 149 )( + T3 114 ) ) )
(or ( <= ( + T3 251 )  ( + T8 149 ) ) ( <= ( + T8 203 )( + T3 190 ) ) )
(or ( <= ( + T3 285 )  ( + T8 203 ) ) ( <= ( + T8 297 )( + T3 251 ) ) )
(or ( <= ( + T3 321 )  ( + T8 297 ) ) ( <= ( + T8 299 )( + T3 285 ) ) )
(or ( <= ( + T3 351 )  ( + T8 299 ) ) ( <= ( + T8 380 )( + T3 321 ) ) )
(or ( <= ( + T3 386 )  ( + T8 380 ) ) ( <= ( + T8 431 )( + T3 351 ) ) )
(or ( <= ( + T3 75 ) T9 ) ( <= ( + T9 77 ) T3 ) )
(or ( <= ( + T3 114 )  ( + T9 77 ) ) ( <= ( + T9 148 )( + T3 75 ) ) )
(or ( <= ( + T3 190 )  ( + T9 148 ) ) ( <= ( + T9 172 )( + T3 114 ) ) )
(or ( <= ( + T3 251 )  ( + T9 172 ) ) ( <= ( + T9 264 )( + T3 190 ) ) )
(or ( <= ( + T3 285 )  ( + T9 264 ) ) ( <= ( + T9 274 )( + T3 251 ) ) )
(or ( <= ( + T3 321 )  ( + T9 274 ) ) ( <= ( + T9 281 )( + T3 285 ) ) )
(or ( <= ( + T3 351 )  ( + T9 281 ) ) ( <= ( + T9 339 )( + T3 321 ) ) )
(or ( <= ( + T3 386 )  ( + T9 339 ) ) ( <= ( + T9 374 )( + T3 351 ) ) )
(or ( <= ( + T3 75 ) T10 ) ( <= ( + T10 76 ) T3 ) )
(or ( <= ( + T3 114 )  ( + T10 76 ) ) ( <= ( + T10 81 )( + T3 75 ) ) )
(or ( <= ( + T3 190 )  ( + T10 81 ) ) ( <= ( + T10 169 )( + T3 114 ) ) )
(or ( <= ( + T3 251 )  ( + T10 169 ) ) ( <= ( + T10 259 )( + T3 190 ) ) )
(or ( <= ( + T3 285 )  ( + T10 259 ) ) ( <= ( + T10 324 )( + T3 251 ) ) )
(or ( <= ( + T3 321 )  ( + T10 324 ) ) ( <= ( + T10 362 )( + T3 285 ) ) )
(or ( <= ( + T3 351 )  ( + T10 362 ) ) ( <= ( + T10 391 )( + T3 321 ) ) )
(or ( <= ( + T3 386 )  ( + T10 391 ) ) ( <= ( + T10 405 )( + T3 351 ) ) )
(or ( <= ( + T4 79 ) T5 ) ( <= ( + T5 58 ) T4 ) )
(or ( <= ( + T4 109 )  ( + T5 58 ) ) ( <= ( + T5 82 )( + T4 79 ) ) )
(or ( <= ( + T4 197 )  ( + T5 82 ) ) ( <= ( + T5 121 )( + T4 109 ) ) )
(or ( <= ( + T4 289 )  ( + T5 121 ) ) ( <= ( + T5 195 )( + T4 197 ) ) )
(or ( <= ( + T4 332 )  ( + T5 195 ) ) ( <= ( + T5 210 )( + T4 289 ) ) )
(or ( <= ( + T4 370 )  ( + T5 210 ) ) ( <= ( + T5 250 )( + T4 332 ) ) )
(or ( <= ( + T4 437 )  ( + T5 250 ) ) ( <= ( + T5 281 )( + T4 370 ) ) )
(or ( <= ( + T4 465 )  ( + T5 281 ) ) ( <= ( + T5 348 )( + T4 437 ) ) )
(or ( <= ( + T4 79 ) T6 ) ( <= ( + T6 73 ) T4 ) )
(or ( <= ( + T4 109 )  ( + T6 73 ) ) ( <= ( + T6 91 )( + T4 79 ) ) )
(or ( <= ( + T4 197 )  ( + T6 91 ) ) ( <= ( + T6 187 )( + T4 109 ) ) )
(or ( <= ( + T4 289 )  ( + T6 187 ) ) ( <= ( + T6 241 )( + T4 197 ) ) )
(or ( <= ( + T4 332 )  ( + T6 241 ) ) ( <= ( + T6 303 )( + T4 289 ) ) )
(or ( <= ( + T4 370 )  ( + T6 303 ) ) ( <= ( + T6 311 )( + T4 332 ) ) )
(or ( <= ( + T4 437 )  ( + T6 311 ) ) ( <= ( + T6 410 )( + T4 370 ) ) )
(or ( <= ( + T4 465 )  ( + T6 410 ) ) ( <= ( + T6 498 )( + T4 437 ) ) )
(or ( <= ( + T4 79 ) T7 ) ( <= ( + T7 98 ) T4 ) )
(or ( <= ( + T4 109 )  ( + T7 98 ) ) ( <= ( + T7 172 )( + T4 79 ) ) )
(or ( <= ( + T4 197 )  ( + T7 172 ) ) ( <= ( + T7 173 )( + T4 109 ) ) )
(or ( <= ( + T4 289 )  ( + T7 173 ) ) ( <= ( + T7 256 )( + T4 197 ) ) )
(or ( <= ( + T4 332 )  ( + T7 256 ) ) ( <= ( + T7 318 )( + T4 289 ) ) )
(or ( <= ( + T4 370 )  ( + T7 318 ) ) ( <= ( + T7 348 )( + T4 332 ) ) )
(or ( <= ( + T4 437 )  ( + T7 348 ) ) ( <= ( + T7 365 )( + T4 370 ) ) )
(or ( <= ( + T4 465 )  ( + T7 365 ) ) ( <= ( + T7 457 )( + T4 437 ) ) )
(or ( <= ( + T4 79 ) T8 ) ( <= ( + T8 60 ) T4 ) )
(or ( <= ( + T4 109 )  ( + T8 60 ) ) ( <= ( + T8 65 )( + T4 79 ) ) )
(or ( <= ( + T4 197 )  ( + T8 65 ) ) ( <= ( + T8 149 )( + T4 109 ) ) )
(or ( <= ( + T4 289 )  ( + T8 149 ) ) ( <= ( + T8 203 )( + T4 197 ) ) )
(or ( <= ( + T4 332 )  ( + T8 203 ) ) ( <= ( + T8 297 )( + T4 289 ) ) )
(or ( <= ( + T4 370 )  ( + T8 297 ) ) ( <= ( + T8 299 )( + T4 332 ) ) )
(or ( <= ( + T4 437 )  ( + T8 299 ) ) ( <= ( + T8 380 )( + T4 370 ) ) )
(or ( <= ( + T4 465 )  ( + T8 380 ) ) ( <= ( + T8 431 )( + T4 437 ) ) )
(or ( <= ( + T4 79 ) T9 ) ( <= ( + T9 77 ) T4 ) )
(or ( <= ( + T4 109 )  ( + T9 77 ) ) ( <= ( + T9 148 )( + T4 79 ) ) )
(or ( <= ( + T4 197 )  ( + T9 148 ) ) ( <= ( + T9 172 )( + T4 109 ) ) )
(or ( <= ( + T4 289 )  ( + T9 172 ) ) ( <= ( + T9 264 )( + T4 197 ) ) )
(or ( <= ( + T4 332 )  ( + T9 264 ) ) ( <= ( + T9 274 )( + T4 289 ) ) )
(or ( <= ( + T4 370 )  ( + T9 274 ) ) ( <= ( + T9 281 )( + T4 332 ) ) )
(or ( <= ( + T4 437 )  ( + T9 281 ) ) ( <= ( + T9 339 )( + T4 370 ) ) )
(or ( <= ( + T4 465 )  ( + T9 339 ) ) ( <= ( + T9 374 )( + T4 437 ) ) )
(or ( <= ( + T4 79 ) T10 ) ( <= ( + T10 76 ) T4 ) )
(or ( <= ( + T4 109 )  ( + T10 76 ) ) ( <= ( + T10 81 )( + T4 79 ) ) )
(or ( <= ( + T4 197 )  ( + T10 81 ) ) ( <= ( + T10 169 )( + T4 109 ) ) )
(or ( <= ( + T4 289 )  ( + T10 169 ) ) ( <= ( + T10 259 )( + T4 197 ) ) )
(or ( <= ( + T4 332 )  ( + T10 259 ) ) ( <= ( + T10 324 )( + T4 289 ) ) )
(or ( <= ( + T4 370 )  ( + T10 324 ) ) ( <= ( + T10 362 )( + T4 332 ) ) )
(or ( <= ( + T4 437 )  ( + T10 362 ) ) ( <= ( + T10 391 )( + T4 370 ) ) )
(or ( <= ( + T4 465 )  ( + T10 391 ) ) ( <= ( + T10 405 )( + T4 437 ) ) )
(or ( <= ( + T5 58 ) T6 ) ( <= ( + T6 73 ) T5 ) )
(or ( <= ( + T5 82 )  ( + T6 73 ) ) ( <= ( + T6 91 )( + T5 58 ) ) )
(or ( <= ( + T5 121 )  ( + T6 91 ) ) ( <= ( + T6 187 )( + T5 82 ) ) )
(or ( <= ( + T5 195 )  ( + T6 187 ) ) ( <= ( + T6 241 )( + T5 121 ) ) )
(or ( <= ( + T5 210 )  ( + T6 241 ) ) ( <= ( + T6 303 )( + T5 195 ) ) )
(or ( <= ( + T5 250 )  ( + T6 303 ) ) ( <= ( + T6 311 )( + T5 210 ) ) )
(or ( <= ( + T5 281 )  ( + T6 311 ) ) ( <= ( + T6 410 )( + T5 250 ) ) )
(or ( <= ( + T5 348 )  ( + T6 410 ) ) ( <= ( + T6 498 )( + T5 281 ) ) )
(or ( <= ( + T5 58 ) T7 ) ( <= ( + T7 98 ) T5 ) )
(or ( <= ( + T5 82 )  ( + T7 98 ) ) ( <= ( + T7 172 )( + T5 58 ) ) )
(or ( <= ( + T5 121 )  ( + T7 172 ) ) ( <= ( + T7 173 )( + T5 82 ) ) )
(or ( <= ( + T5 195 )  ( + T7 173 ) ) ( <= ( + T7 256 )( + T5 121 ) ) )
(or ( <= ( + T5 210 )  ( + T7 256 ) ) ( <= ( + T7 318 )( + T5 195 ) ) )
(or ( <= ( + T5 250 )  ( + T7 318 ) ) ( <= ( + T7 348 )( + T5 210 ) ) )
(or ( <= ( + T5 281 )  ( + T7 348 ) ) ( <= ( + T7 365 )( + T5 250 ) ) )
(or ( <= ( + T5 348 )  ( + T7 365 ) ) ( <= ( + T7 457 )( + T5 281 ) ) )
(or ( <= ( + T5 58 ) T8 ) ( <= ( + T8 60 ) T5 ) )
(or ( <= ( + T5 82 )  ( + T8 60 ) ) ( <= ( + T8 65 )( + T5 58 ) ) )
(or ( <= ( + T5 121 )  ( + T8 65 ) ) ( <= ( + T8 149 )( + T5 82 ) ) )
(or ( <= ( + T5 195 )  ( + T8 149 ) ) ( <= ( + T8 203 )( + T5 121 ) ) )
(or ( <= ( + T5 210 )  ( + T8 203 ) ) ( <= ( + T8 297 )( + T5 195 ) ) )
(or ( <= ( + T5 250 )  ( + T8 297 ) ) ( <= ( + T8 299 )( + T5 210 ) ) )
(or ( <= ( + T5 281 )  ( + T8 299 ) ) ( <= ( + T8 380 )( + T5 250 ) ) )
(or ( <= ( + T5 348 )  ( + T8 380 ) ) ( <= ( + T8 431 )( + T5 281 ) ) )
(or ( <= ( + T5 58 ) T9 ) ( <= ( + T9 77 ) T5 ) )
(or ( <= ( + T5 82 )  ( + T9 77 ) ) ( <= ( + T9 148 )( + T5 58 ) ) )
(or ( <= ( + T5 121 )  ( + T9 148 ) ) ( <= ( + T9 172 )( + T5 82 ) ) )
(or ( <= ( + T5 195 )  ( + T9 172 ) ) ( <= ( + T9 264 )( + T5 121 ) ) )
(or ( <= ( + T5 210 )  ( + T9 264 ) ) ( <= ( + T9 274 )( + T5 195 ) ) )
(or ( <= ( + T5 250 )  ( + T9 274 ) ) ( <= ( + T9 281 )( + T5 210 ) ) )
(or ( <= ( + T5 281 )  ( + T9 281 ) ) ( <= ( + T9 339 )( + T5 250 ) ) )
(or ( <= ( + T5 348 )  ( + T9 339 ) ) ( <= ( + T9 374 )( + T5 281 ) ) )
(or ( <= ( + T5 58 ) T10 ) ( <= ( + T10 76 ) T5 ) )
(or ( <= ( + T5 82 )  ( + T10 76 ) ) ( <= ( + T10 81 )( + T5 58 ) ) )
(or ( <= ( + T5 121 )  ( + T10 81 ) ) ( <= ( + T10 169 )( + T5 82 ) ) )
(or ( <= ( + T5 195 )  ( + T10 169 ) ) ( <= ( + T10 259 )( + T5 121 ) ) )
(or ( <= ( + T5 210 )  ( + T10 259 ) ) ( <= ( + T10 324 )( + T5 195 ) ) )
(or ( <= ( + T5 250 )  ( + T10 324 ) ) ( <= ( + T10 362 )( + T5 210 ) ) )
(or ( <= ( + T5 281 )  ( + T10 362 ) ) ( <= ( + T10 391 )( + T5 250 ) ) )
(or ( <= ( + T5 348 )  ( + T10 391 ) ) ( <= ( + T10 405 )( + T5 281 ) ) )
(or ( <= ( + T6 73 ) T7 ) ( <= ( + T7 98 ) T6 ) )
(or ( <= ( + T6 91 )  ( + T7 98 ) ) ( <= ( + T7 172 )( + T6 73 ) ) )
(or ( <= ( + T6 187 )  ( + T7 172 ) ) ( <= ( + T7 173 )( + T6 91 ) ) )
(or ( <= ( + T6 241 )  ( + T7 173 ) ) ( <= ( + T7 256 )( + T6 187 ) ) )
(or ( <= ( + T6 303 )  ( + T7 256 ) ) ( <= ( + T7 318 )( + T6 241 ) ) )
(or ( <= ( + T6 311 )  ( + T7 318 ) ) ( <= ( + T7 348 )( + T6 303 ) ) )
(or ( <= ( + T6 410 )  ( + T7 348 ) ) ( <= ( + T7 365 )( + T6 311 ) ) )
(or ( <= ( + T6 498 )  ( + T7 365 ) ) ( <= ( + T7 457 )( + T6 410 ) ) )
(or ( <= ( + T6 73 ) T8 ) ( <= ( + T8 60 ) T6 ) )
(or ( <= ( + T6 91 )  ( + T8 60 ) ) ( <= ( + T8 65 )( + T6 73 ) ) )
(or ( <= ( + T6 187 )  ( + T8 65 ) ) ( <= ( + T8 149 )( + T6 91 ) ) )
(or ( <= ( + T6 241 )  ( + T8 149 ) ) ( <= ( + T8 203 )( + T6 187 ) ) )
(or ( <= ( + T6 303 )  ( + T8 203 ) ) ( <= ( + T8 297 )( + T6 241 ) ) )
(or ( <= ( + T6 311 )  ( + T8 297 ) ) ( <= ( + T8 299 )( + T6 303 ) ) )
(or ( <= ( + T6 410 )  ( + T8 299 ) ) ( <= ( + T8 380 )( + T6 311 ) ) )
(or ( <= ( + T6 498 )  ( + T8 380 ) ) ( <= ( + T8 431 )( + T6 410 ) ) )
(or ( <= ( + T6 73 ) T9 ) ( <= ( + T9 77 ) T6 ) )
(or ( <= ( + T6 91 )  ( + T9 77 ) ) ( <= ( + T9 148 )( + T6 73 ) ) )
(or ( <= ( + T6 187 )  ( + T9 148 ) ) ( <= ( + T9 172 )( + T6 91 ) ) )
(or ( <= ( + T6 241 )  ( + T9 172 ) ) ( <= ( + T9 264 )( + T6 187 ) ) )
(or ( <= ( + T6 303 )  ( + T9 264 ) ) ( <= ( + T9 274 )( + T6 241 ) ) )
(or ( <= ( + T6 311 )  ( + T9 274 ) ) ( <= ( + T9 281 )( + T6 303 ) ) )
(or ( <= ( + T6 410 )  ( + T9 281 ) ) ( <= ( + T9 339 )( + T6 311 ) ) )
(or ( <= ( + T6 498 )  ( + T9 339 ) ) ( <= ( + T9 374 )( + T6 410 ) ) )
(or ( <= ( + T6 73 ) T10 ) ( <= ( + T10 76 ) T6 ) )
(or ( <= ( + T6 91 )  ( + T10 76 ) ) ( <= ( + T10 81 )( + T6 73 ) ) )
(or ( <= ( + T6 187 )  ( + T10 81 ) ) ( <= ( + T10 169 )( + T6 91 ) ) )
(or ( <= ( + T6 241 )  ( + T10 169 ) ) ( <= ( + T10 259 )( + T6 187 ) ) )
(or ( <= ( + T6 303 )  ( + T10 259 ) ) ( <= ( + T10 324 )( + T6 241 ) ) )
(or ( <= ( + T6 311 )  ( + T10 324 ) ) ( <= ( + T10 362 )( + T6 303 ) ) )
(or ( <= ( + T6 410 )  ( + T10 362 ) ) ( <= ( + T10 391 )( + T6 311 ) ) )
(or ( <= ( + T6 498 )  ( + T10 391 ) ) ( <= ( + T10 405 )( + T6 410 ) ) )
(or ( <= ( + T7 98 ) T8 ) ( <= ( + T8 60 ) T7 ) )
(or ( <= ( + T7 172 )  ( + T8 60 ) ) ( <= ( + T8 65 )( + T7 98 ) ) )
(or ( <= ( + T7 173 )  ( + T8 65 ) ) ( <= ( + T8 149 )( + T7 172 ) ) )
(or ( <= ( + T7 256 )  ( + T8 149 ) ) ( <= ( + T8 203 )( + T7 173 ) ) )
(or ( <= ( + T7 318 )  ( + T8 203 ) ) ( <= ( + T8 297 )( + T7 256 ) ) )
(or ( <= ( + T7 348 )  ( + T8 297 ) ) ( <= ( + T8 299 )( + T7 318 ) ) )
(or ( <= ( + T7 365 )  ( + T8 299 ) ) ( <= ( + T8 380 )( + T7 348 ) ) )
(or ( <= ( + T7 457 )  ( + T8 380 ) ) ( <= ( + T8 431 )( + T7 365 ) ) )
(or ( <= ( + T7 98 ) T9 ) ( <= ( + T9 77 ) T7 ) )
(or ( <= ( + T7 172 )  ( + T9 77 ) ) ( <= ( + T9 148 )( + T7 98 ) ) )
(or ( <= ( + T7 173 )  ( + T9 148 ) ) ( <= ( + T9 172 )( + T7 172 ) ) )
(or ( <= ( + T7 256 )  ( + T9 172 ) ) ( <= ( + T9 264 )( + T7 173 ) ) )
(or ( <= ( + T7 318 )  ( + T9 264 ) ) ( <= ( + T9 274 )( + T7 256 ) ) )
(or ( <= ( + T7 348 )  ( + T9 274 ) ) ( <= ( + T9 281 )( + T7 318 ) ) )
(or ( <= ( + T7 365 )  ( + T9 281 ) ) ( <= ( + T9 339 )( + T7 348 ) ) )
(or ( <= ( + T7 457 )  ( + T9 339 ) ) ( <= ( + T9 374 )( + T7 365 ) ) )
(or ( <= ( + T7 98 ) T10 ) ( <= ( + T10 76 ) T7 ) )
(or ( <= ( + T7 172 )  ( + T10 76 ) ) ( <= ( + T10 81 )( + T7 98 ) ) )
(or ( <= ( + T7 173 )  ( + T10 81 ) ) ( <= ( + T10 169 )( + T7 172 ) ) )
(or ( <= ( + T7 256 )  ( + T10 169 ) ) ( <= ( + T10 259 )( + T7 173 ) ) )
(or ( <= ( + T7 318 )  ( + T10 259 ) ) ( <= ( + T10 324 )( + T7 256 ) ) )
(or ( <= ( + T7 348 )  ( + T10 324 ) ) ( <= ( + T10 362 )( + T7 318 ) ) )
(or ( <= ( + T7 365 )  ( + T10 362 ) ) ( <= ( + T10 391 )( + T7 348 ) ) )
(or ( <= ( + T7 457 )  ( + T10 391 ) ) ( <= ( + T10 405 )( + T7 365 ) ) )
(or ( <= ( + T8 60 ) T9 ) ( <= ( + T9 77 ) T8 ) )
(or ( <= ( + T8 65 )  ( + T9 77 ) ) ( <= ( + T9 148 )( + T8 60 ) ) )
(or ( <= ( + T8 149 )  ( + T9 148 ) ) ( <= ( + T9 172 )( + T8 65 ) ) )
(or ( <= ( + T8 203 )  ( + T9 172 ) ) ( <= ( + T9 264 )( + T8 149 ) ) )
(or ( <= ( + T8 297 )  ( + T9 264 ) ) ( <= ( + T9 274 )( + T8 203 ) ) )
(or ( <= ( + T8 299 )  ( + T9 274 ) ) ( <= ( + T9 281 )( + T8 297 ) ) )
(or ( <= ( + T8 380 )  ( + T9 281 ) ) ( <= ( + T9 339 )( + T8 299 ) ) )
(or ( <= ( + T8 431 )  ( + T9 339 ) ) ( <= ( + T9 374 )( + T8 380 ) ) )
(or ( <= ( + T8 60 ) T10 ) ( <= ( + T10 76 ) T8 ) )
(or ( <= ( + T8 65 )  ( + T10 76 ) ) ( <= ( + T10 81 )( + T8 60 ) ) )
(or ( <= ( + T8 149 )  ( + T10 81 ) ) ( <= ( + T10 169 )( + T8 65 ) ) )
(or ( <= ( + T8 203 )  ( + T10 169 ) ) ( <= ( + T10 259 )( + T8 149 ) ) )
(or ( <= ( + T8 297 )  ( + T10 259 ) ) ( <= ( + T10 324 )( + T8 203 ) ) )
(or ( <= ( + T8 299 )  ( + T10 324 ) ) ( <= ( + T10 362 )( + T8 297 ) ) )
(or ( <= ( + T8 380 )  ( + T10 362 ) ) ( <= ( + T10 391 )( + T8 299 ) ) )
(or ( <= ( + T8 431 )  ( + T10 391 ) ) ( <= ( + T10 405 )( + T8 380 ) ) )
(or ( <= ( + T9 77 ) T10 ) ( <= ( + T10 76 ) T9 ) )
(or ( <= ( + T9 148 )  ( + T10 76 ) ) ( <= ( + T10 81 )( + T9 77 ) ) )
(or ( <= ( + T9 172 )  ( + T10 81 ) ) ( <= ( + T10 169 )( + T9 148 ) ) )
(or ( <= ( + T9 264 )  ( + T10 169 ) ) ( <= ( + T10 259 )( + T9 172 ) ) )
(or ( <= ( + T9 274 )  ( + T10 259 ) ) ( <= ( + T10 324 )( + T9 264 ) ) )
(or ( <= ( + T9 281 )  ( + T10 324 ) ) ( <= ( + T10 362 )( + T9 274 ) ) )
(or ( <= ( + T9 339 )  ( + T10 362 ) ) ( <= ( + T10 391 )( + T9 281 ) ) )
(or ( <= ( + T9 374 )  ( + T10 391 ) ) ( <= ( + T10 405 )( + T9 339 ) ) )
( <= ( + T1 283 ) Z)
( <= ( + T2 481 ) Z)
( <= ( + T3 386 ) Z)
( <= ( + T4 465 ) Z)
( <= ( + T5 348 ) Z)
( <= ( + T6 498 ) Z)
( <= ( + T7 457 ) Z)
( <= ( + T8 431 ) Z)
( <= ( + T9 374 ) Z)
( <= ( + T10 405 ) Z)
( >= T1 0 )
( >= T2 0 )
( >= T3 0 )
( >= T4 0 )
( >= T5 0 )
( >= T6 0 )
( >= T7 0 )
( >= T8 0 )
( >= T9 0 )
( >= T10 0 )
) )
)(=> $phi $goal))))